outputs/case_195.model.txt
high_risk_other_measures = False
international_organization_announced_noncompliance = False
international_organization_announced_serious_deficiency = False
other_concrete_evidence_high_risk = False
high_risk_measures_strengthened = False
high_risk_transactions_restricted = False
bank_internal_control_executed = True
dedicated_personnel_assigned = True
bank_internal_control_established = True
bank_internal_operation_executed = True
bank_internal_handling_executed = True
audit_procedures_established = True
bank_internal_operation_established = True
bank_internal_handling_established = True
control_procedures_established = True
risk_assessment_report_updated = True
other_designated_matters_established = True
training_held = True
internal_control_executed = True
bank_internal_systems_compliance = True
violation_internal_systems = False
bank_internal_operation_compliance = True
high_risk_country = False
penalty = False
internal_control_compliance = True
inspection_cooperation = True
internal_control_established = True
bank_internal_control_compliance = True
bank_internal_handling_compliance = True
inspection_obstruction = False